c Random Network
p max    10      20
n         1  s
n        10  t
a       4       3      28
a       5      10      27
a       2       9      27
a       1       7      42
a       3       2      26
a       4       9      30
a       5       7      34
a       2       3      24
a       9       2       3
a       7       4      24
a       3       7      34
a       9       1      15
a       6       1      39
a       2       5      45
a       3       1      34
a       5       2       7
a      10       1      41
a       8       4      41
a       9       6      27
a       7       3      11
